c *********************************
c * Circuit generated by BenCGen
c *
c * RippleCarryAdderSubtractor_85_85_85_OutSunT
c *
c * Ports with 1 gate(s): 2
c * Ports with 2 gate(s): 512
c * Total gates: 514
c *********************************
p cnf 684 1796
1 258 0
-1 -258 0
1 -257 0
258 -257 0
-1 -258 257 0
257 259 0
-257 -259 0
86 257 -260 0
-86 257 260 0
86 -257 260 0
-86 -257 -260 0
87 257 -261 0
-87 257 261 0
87 -257 261 0
-87 -257 -261 0
88 257 -262 0
-88 257 262 0
88 -257 262 0
-88 -257 -262 0
89 257 -263 0
-89 257 263 0
89 -257 263 0
-89 -257 -263 0
90 257 -264 0
-90 257 264 0
90 -257 264 0
-90 -257 -264 0
91 257 -265 0
-91 257 265 0
91 -257 265 0
-91 -257 -265 0
92 257 -266 0
-92 257 266 0
92 -257 266 0
-92 -257 -266 0
93 257 -267 0
-93 257 267 0
93 -257 267 0
-93 -257 -267 0
94 257 -268 0
-94 257 268 0
94 -257 268 0
-94 -257 -268 0
95 257 -269 0
-95 257 269 0
95 -257 269 0
-95 -257 -269 0
96 257 -270 0
-96 257 270 0
96 -257 270 0
-96 -257 -270 0
97 257 -271 0
-97 257 271 0
97 -257 271 0
-97 -257 -271 0
98 257 -272 0
-98 257 272 0
98 -257 272 0
-98 -257 -272 0
99 257 -273 0
-99 257 273 0
99 -257 273 0
-99 -257 -273 0
100 257 -274 0
-100 257 274 0
100 -257 274 0
-100 -257 -274 0
101 257 -275 0
-101 257 275 0
101 -257 275 0
-101 -257 -275 0
102 257 -276 0
-102 257 276 0
102 -257 276 0
-102 -257 -276 0
103 257 -277 0
-103 257 277 0
103 -257 277 0
-103 -257 -277 0
104 257 -278 0
-104 257 278 0
104 -257 278 0
-104 -257 -278 0
105 257 -279 0
-105 257 279 0
105 -257 279 0
-105 -257 -279 0
106 257 -280 0
-106 257 280 0
106 -257 280 0
-106 -257 -280 0
107 257 -281 0
-107 257 281 0
107 -257 281 0
-107 -257 -281 0
108 257 -282 0
-108 257 282 0
108 -257 282 0
-108 -257 -282 0
109 257 -283 0
-109 257 283 0
109 -257 283 0
-109 -257 -283 0
110 257 -284 0
-110 257 284 0
110 -257 284 0
-110 -257 -284 0
111 257 -285 0
-111 257 285 0
111 -257 285 0
-111 -257 -285 0
112 257 -286 0
-112 257 286 0
112 -257 286 0
-112 -257 -286 0
113 257 -287 0
-113 257 287 0
113 -257 287 0
-113 -257 -287 0
114 257 -288 0
-114 257 288 0
114 -257 288 0
-114 -257 -288 0
115 257 -289 0
-115 257 289 0
115 -257 289 0
-115 -257 -289 0
116 257 -290 0
-116 257 290 0
116 -257 290 0
-116 -257 -290 0
117 257 -291 0
-117 257 291 0
117 -257 291 0
-117 -257 -291 0
118 257 -292 0
-118 257 292 0
118 -257 292 0
-118 -257 -292 0
119 257 -293 0
-119 257 293 0
119 -257 293 0
-119 -257 -293 0
120 257 -294 0
-120 257 294 0
120 -257 294 0
-120 -257 -294 0
121 257 -295 0
-121 257 295 0
121 -257 295 0
-121 -257 -295 0
122 257 -296 0
-122 257 296 0
122 -257 296 0
-122 -257 -296 0
123 257 -297 0
-123 257 297 0
123 -257 297 0
-123 -257 -297 0
124 257 -298 0
-124 257 298 0
124 -257 298 0
-124 -257 -298 0
125 257 -299 0
-125 257 299 0
125 -257 299 0
-125 -257 -299 0
126 257 -300 0
-126 257 300 0
126 -257 300 0
-126 -257 -300 0
127 257 -301 0
-127 257 301 0
127 -257 301 0
-127 -257 -301 0
128 257 -302 0
-128 257 302 0
128 -257 302 0
-128 -257 -302 0
129 257 -303 0
-129 257 303 0
129 -257 303 0
-129 -257 -303 0
130 257 -304 0
-130 257 304 0
130 -257 304 0
-130 -257 -304 0
131 257 -305 0
-131 257 305 0
131 -257 305 0
-131 -257 -305 0
132 257 -306 0
-132 257 306 0
132 -257 306 0
-132 -257 -306 0
133 257 -307 0
-133 257 307 0
133 -257 307 0
-133 -257 -307 0
134 257 -308 0
-134 257 308 0
134 -257 308 0
-134 -257 -308 0
135 257 -309 0
-135 257 309 0
135 -257 309 0
-135 -257 -309 0
136 257 -310 0
-136 257 310 0
136 -257 310 0
-136 -257 -310 0
137 257 -311 0
-137 257 311 0
137 -257 311 0
-137 -257 -311 0
138 257 -312 0
-138 257 312 0
138 -257 312 0
-138 -257 -312 0
139 257 -313 0
-139 257 313 0
139 -257 313 0
-139 -257 -313 0
140 257 -314 0
-140 257 314 0
140 -257 314 0
-140 -257 -314 0
141 257 -315 0
-141 257 315 0
141 -257 315 0
-141 -257 -315 0
142 257 -316 0
-142 257 316 0
142 -257 316 0
-142 -257 -316 0
143 257 -317 0
-143 257 317 0
143 -257 317 0
-143 -257 -317 0
144 257 -318 0
-144 257 318 0
144 -257 318 0
-144 -257 -318 0
145 257 -319 0
-145 257 319 0
145 -257 319 0
-145 -257 -319 0
146 257 -320 0
-146 257 320 0
146 -257 320 0
-146 -257 -320 0
147 257 -321 0
-147 257 321 0
147 -257 321 0
-147 -257 -321 0
148 257 -322 0
-148 257 322 0
148 -257 322 0
-148 -257 -322 0
149 257 -323 0
-149 257 323 0
149 -257 323 0
-149 -257 -323 0
150 257 -324 0
-150 257 324 0
150 -257 324 0
-150 -257 -324 0
151 257 -325 0
-151 257 325 0
151 -257 325 0
-151 -257 -325 0
152 257 -326 0
-152 257 326 0
152 -257 326 0
-152 -257 -326 0
153 257 -327 0
-153 257 327 0
153 -257 327 0
-153 -257 -327 0
154 257 -328 0
-154 257 328 0
154 -257 328 0
-154 -257 -328 0
155 257 -329 0
-155 257 329 0
155 -257 329 0
-155 -257 -329 0
156 257 -330 0
-156 257 330 0
156 -257 330 0
-156 -257 -330 0
157 257 -331 0
-157 257 331 0
157 -257 331 0
-157 -257 -331 0
158 257 -332 0
-158 257 332 0
158 -257 332 0
-158 -257 -332 0
159 257 -333 0
-159 257 333 0
159 -257 333 0
-159 -257 -333 0
160 257 -334 0
-160 257 334 0
160 -257 334 0
-160 -257 -334 0
161 257 -335 0
-161 257 335 0
161 -257 335 0
-161 -257 -335 0
162 257 -336 0
-162 257 336 0
162 -257 336 0
-162 -257 -336 0
163 257 -337 0
-163 257 337 0
163 -257 337 0
-163 -257 -337 0
164 257 -338 0
-164 257 338 0
164 -257 338 0
-164 -257 -338 0
165 257 -339 0
-165 257 339 0
165 -257 339 0
-165 -257 -339 0
166 257 -340 0
-166 257 340 0
166 -257 340 0
-166 -257 -340 0
167 257 -341 0
-167 257 341 0
167 -257 341 0
-167 -257 -341 0
168 257 -342 0
-168 257 342 0
168 -257 342 0
-168 -257 -342 0
169 257 -343 0
-169 257 343 0
169 -257 343 0
-169 -257 -343 0
170 257 -344 0
-170 257 344 0
170 -257 344 0
-170 -257 -344 0
1 260 -346 0
-1 260 346 0
1 -260 346 0
-1 -260 -346 0
346 257 -171 0
-346 257 171 0
346 -257 171 0
-346 -257 -171 0
257 -347 0
346 -347 0
-257 -346 347 0
260 -348 0
1 -348 0
-260 -1 348 0
-347 345 0
-348 345 0
347 348 -345 0
2 261 -350 0
-2 261 350 0
2 -261 350 0
-2 -261 -350 0
350 345 -172 0
-350 345 172 0
350 -345 172 0
-350 -345 -172 0
345 -351 0
350 -351 0
-345 -350 351 0
261 -352 0
2 -352 0
-261 -2 352 0
-351 349 0
-352 349 0
351 352 -349 0
3 262 -354 0
-3 262 354 0
3 -262 354 0
-3 -262 -354 0
354 349 -173 0
-354 349 173 0
354 -349 173 0
-354 -349 -173 0
349 -355 0
354 -355 0
-349 -354 355 0
262 -356 0
3 -356 0
-262 -3 356 0
-355 353 0
-356 353 0
355 356 -353 0
4 263 -358 0
-4 263 358 0
4 -263 358 0
-4 -263 -358 0
358 353 -174 0
-358 353 174 0
358 -353 174 0
-358 -353 -174 0
353 -359 0
358 -359 0
-353 -358 359 0
263 -360 0
4 -360 0
-263 -4 360 0
-359 357 0
-360 357 0
359 360 -357 0
5 264 -362 0
-5 264 362 0
5 -264 362 0
-5 -264 -362 0
362 357 -175 0
-362 357 175 0
362 -357 175 0
-362 -357 -175 0
357 -363 0
362 -363 0
-357 -362 363 0
264 -364 0
5 -364 0
-264 -5 364 0
-363 361 0
-364 361 0
363 364 -361 0
6 265 -366 0
-6 265 366 0
6 -265 366 0
-6 -265 -366 0
366 361 -176 0
-366 361 176 0
366 -361 176 0
-366 -361 -176 0
361 -367 0
366 -367 0
-361 -366 367 0
265 -368 0
6 -368 0
-265 -6 368 0
-367 365 0
-368 365 0
367 368 -365 0
7 266 -370 0
-7 266 370 0
7 -266 370 0
-7 -266 -370 0
370 365 -177 0
-370 365 177 0
370 -365 177 0
-370 -365 -177 0
365 -371 0
370 -371 0
-365 -370 371 0
266 -372 0
7 -372 0
-266 -7 372 0
-371 369 0
-372 369 0
371 372 -369 0
8 267 -374 0
-8 267 374 0
8 -267 374 0
-8 -267 -374 0
374 369 -178 0
-374 369 178 0
374 -369 178 0
-374 -369 -178 0
369 -375 0
374 -375 0
-369 -374 375 0
267 -376 0
8 -376 0
-267 -8 376 0
-375 373 0
-376 373 0
375 376 -373 0
9 268 -378 0
-9 268 378 0
9 -268 378 0
-9 -268 -378 0
378 373 -179 0
-378 373 179 0
378 -373 179 0
-378 -373 -179 0
373 -379 0
378 -379 0
-373 -378 379 0
268 -380 0
9 -380 0
-268 -9 380 0
-379 377 0
-380 377 0
379 380 -377 0
10 269 -382 0
-10 269 382 0
10 -269 382 0
-10 -269 -382 0
382 377 -180 0
-382 377 180 0
382 -377 180 0
-382 -377 -180 0
377 -383 0
382 -383 0
-377 -382 383 0
269 -384 0
10 -384 0
-269 -10 384 0
-383 381 0
-384 381 0
383 384 -381 0
11 270 -386 0
-11 270 386 0
11 -270 386 0
-11 -270 -386 0
386 381 -181 0
-386 381 181 0
386 -381 181 0
-386 -381 -181 0
381 -387 0
386 -387 0
-381 -386 387 0
270 -388 0
11 -388 0
-270 -11 388 0
-387 385 0
-388 385 0
387 388 -385 0
12 271 -390 0
-12 271 390 0
12 -271 390 0
-12 -271 -390 0
390 385 -182 0
-390 385 182 0
390 -385 182 0
-390 -385 -182 0
385 -391 0
390 -391 0
-385 -390 391 0
271 -392 0
12 -392 0
-271 -12 392 0
-391 389 0
-392 389 0
391 392 -389 0
13 272 -394 0
-13 272 394 0
13 -272 394 0
-13 -272 -394 0
394 389 -183 0
-394 389 183 0
394 -389 183 0
-394 -389 -183 0
389 -395 0
394 -395 0
-389 -394 395 0
272 -396 0
13 -396 0
-272 -13 396 0
-395 393 0
-396 393 0
395 396 -393 0
14 273 -398 0
-14 273 398 0
14 -273 398 0
-14 -273 -398 0
398 393 -184 0
-398 393 184 0
398 -393 184 0
-398 -393 -184 0
393 -399 0
398 -399 0
-393 -398 399 0
273 -400 0
14 -400 0
-273 -14 400 0
-399 397 0
-400 397 0
399 400 -397 0
15 274 -402 0
-15 274 402 0
15 -274 402 0
-15 -274 -402 0
402 397 -185 0
-402 397 185 0
402 -397 185 0
-402 -397 -185 0
397 -403 0
402 -403 0
-397 -402 403 0
274 -404 0
15 -404 0
-274 -15 404 0
-403 401 0
-404 401 0
403 404 -401 0
16 275 -406 0
-16 275 406 0
16 -275 406 0
-16 -275 -406 0
406 401 -186 0
-406 401 186 0
406 -401 186 0
-406 -401 -186 0
401 -407 0
406 -407 0
-401 -406 407 0
275 -408 0
16 -408 0
-275 -16 408 0
-407 405 0
-408 405 0
407 408 -405 0
17 276 -410 0
-17 276 410 0
17 -276 410 0
-17 -276 -410 0
410 405 -187 0
-410 405 187 0
410 -405 187 0
-410 -405 -187 0
405 -411 0
410 -411 0
-405 -410 411 0
276 -412 0
17 -412 0
-276 -17 412 0
-411 409 0
-412 409 0
411 412 -409 0
18 277 -414 0
-18 277 414 0
18 -277 414 0
-18 -277 -414 0
414 409 -188 0
-414 409 188 0
414 -409 188 0
-414 -409 -188 0
409 -415 0
414 -415 0
-409 -414 415 0
277 -416 0
18 -416 0
-277 -18 416 0
-415 413 0
-416 413 0
415 416 -413 0
19 278 -418 0
-19 278 418 0
19 -278 418 0
-19 -278 -418 0
418 413 -189 0
-418 413 189 0
418 -413 189 0
-418 -413 -189 0
413 -419 0
418 -419 0
-413 -418 419 0
278 -420 0
19 -420 0
-278 -19 420 0
-419 417 0
-420 417 0
419 420 -417 0
20 279 -422 0
-20 279 422 0
20 -279 422 0
-20 -279 -422 0
422 417 -190 0
-422 417 190 0
422 -417 190 0
-422 -417 -190 0
417 -423 0
422 -423 0
-417 -422 423 0
279 -424 0
20 -424 0
-279 -20 424 0
-423 421 0
-424 421 0
423 424 -421 0
21 280 -426 0
-21 280 426 0
21 -280 426 0
-21 -280 -426 0
426 421 -191 0
-426 421 191 0
426 -421 191 0
-426 -421 -191 0
421 -427 0
426 -427 0
-421 -426 427 0
280 -428 0
21 -428 0
-280 -21 428 0
-427 425 0
-428 425 0
427 428 -425 0
22 281 -430 0
-22 281 430 0
22 -281 430 0
-22 -281 -430 0
430 425 -192 0
-430 425 192 0
430 -425 192 0
-430 -425 -192 0
425 -431 0
430 -431 0
-425 -430 431 0
281 -432 0
22 -432 0
-281 -22 432 0
-431 429 0
-432 429 0
431 432 -429 0
23 282 -434 0
-23 282 434 0
23 -282 434 0
-23 -282 -434 0
434 429 -193 0
-434 429 193 0
434 -429 193 0
-434 -429 -193 0
429 -435 0
434 -435 0
-429 -434 435 0
282 -436 0
23 -436 0
-282 -23 436 0
-435 433 0
-436 433 0
435 436 -433 0
24 283 -438 0
-24 283 438 0
24 -283 438 0
-24 -283 -438 0
438 433 -194 0
-438 433 194 0
438 -433 194 0
-438 -433 -194 0
433 -439 0
438 -439 0
-433 -438 439 0
283 -440 0
24 -440 0
-283 -24 440 0
-439 437 0
-440 437 0
439 440 -437 0
25 284 -442 0
-25 284 442 0
25 -284 442 0
-25 -284 -442 0
442 437 -195 0
-442 437 195 0
442 -437 195 0
-442 -437 -195 0
437 -443 0
442 -443 0
-437 -442 443 0
284 -444 0
25 -444 0
-284 -25 444 0
-443 441 0
-444 441 0
443 444 -441 0
26 285 -446 0
-26 285 446 0
26 -285 446 0
-26 -285 -446 0
446 441 -196 0
-446 441 196 0
446 -441 196 0
-446 -441 -196 0
441 -447 0
446 -447 0
-441 -446 447 0
285 -448 0
26 -448 0
-285 -26 448 0
-447 445 0
-448 445 0
447 448 -445 0
27 286 -450 0
-27 286 450 0
27 -286 450 0
-27 -286 -450 0
450 445 -197 0
-450 445 197 0
450 -445 197 0
-450 -445 -197 0
445 -451 0
450 -451 0
-445 -450 451 0
286 -452 0
27 -452 0
-286 -27 452 0
-451 449 0
-452 449 0
451 452 -449 0
28 287 -454 0
-28 287 454 0
28 -287 454 0
-28 -287 -454 0
454 449 -198 0
-454 449 198 0
454 -449 198 0
-454 -449 -198 0
449 -455 0
454 -455 0
-449 -454 455 0
287 -456 0
28 -456 0
-287 -28 456 0
-455 453 0
-456 453 0
455 456 -453 0
29 288 -458 0
-29 288 458 0
29 -288 458 0
-29 -288 -458 0
458 453 -199 0
-458 453 199 0
458 -453 199 0
-458 -453 -199 0
453 -459 0
458 -459 0
-453 -458 459 0
288 -460 0
29 -460 0
-288 -29 460 0
-459 457 0
-460 457 0
459 460 -457 0
30 289 -462 0
-30 289 462 0
30 -289 462 0
-30 -289 -462 0
462 457 -200 0
-462 457 200 0
462 -457 200 0
-462 -457 -200 0
457 -463 0
462 -463 0
-457 -462 463 0
289 -464 0
30 -464 0
-289 -30 464 0
-463 461 0
-464 461 0
463 464 -461 0
31 290 -466 0
-31 290 466 0
31 -290 466 0
-31 -290 -466 0
466 461 -201 0
-466 461 201 0
466 -461 201 0
-466 -461 -201 0
461 -467 0
466 -467 0
-461 -466 467 0
290 -468 0
31 -468 0
-290 -31 468 0
-467 465 0
-468 465 0
467 468 -465 0
32 291 -470 0
-32 291 470 0
32 -291 470 0
-32 -291 -470 0
470 465 -202 0
-470 465 202 0
470 -465 202 0
-470 -465 -202 0
465 -471 0
470 -471 0
-465 -470 471 0
291 -472 0
32 -472 0
-291 -32 472 0
-471 469 0
-472 469 0
471 472 -469 0
33 292 -474 0
-33 292 474 0
33 -292 474 0
-33 -292 -474 0
474 469 -203 0
-474 469 203 0
474 -469 203 0
-474 -469 -203 0
469 -475 0
474 -475 0
-469 -474 475 0
292 -476 0
33 -476 0
-292 -33 476 0
-475 473 0
-476 473 0
475 476 -473 0
34 293 -478 0
-34 293 478 0
34 -293 478 0
-34 -293 -478 0
478 473 -204 0
-478 473 204 0
478 -473 204 0
-478 -473 -204 0
473 -479 0
478 -479 0
-473 -478 479 0
293 -480 0
34 -480 0
-293 -34 480 0
-479 477 0
-480 477 0
479 480 -477 0
35 294 -482 0
-35 294 482 0
35 -294 482 0
-35 -294 -482 0
482 477 -205 0
-482 477 205 0
482 -477 205 0
-482 -477 -205 0
477 -483 0
482 -483 0
-477 -482 483 0
294 -484 0
35 -484 0
-294 -35 484 0
-483 481 0
-484 481 0
483 484 -481 0
36 295 -486 0
-36 295 486 0
36 -295 486 0
-36 -295 -486 0
486 481 -206 0
-486 481 206 0
486 -481 206 0
-486 -481 -206 0
481 -487 0
486 -487 0
-481 -486 487 0
295 -488 0
36 -488 0
-295 -36 488 0
-487 485 0
-488 485 0
487 488 -485 0
37 296 -490 0
-37 296 490 0
37 -296 490 0
-37 -296 -490 0
490 485 -207 0
-490 485 207 0
490 -485 207 0
-490 -485 -207 0
485 -491 0
490 -491 0
-485 -490 491 0
296 -492 0
37 -492 0
-296 -37 492 0
-491 489 0
-492 489 0
491 492 -489 0
38 297 -494 0
-38 297 494 0
38 -297 494 0
-38 -297 -494 0
494 489 -208 0
-494 489 208 0
494 -489 208 0
-494 -489 -208 0
489 -495 0
494 -495 0
-489 -494 495 0
297 -496 0
38 -496 0
-297 -38 496 0
-495 493 0
-496 493 0
495 496 -493 0
39 298 -498 0
-39 298 498 0
39 -298 498 0
-39 -298 -498 0
498 493 -209 0
-498 493 209 0
498 -493 209 0
-498 -493 -209 0
493 -499 0
498 -499 0
-493 -498 499 0
298 -500 0
39 -500 0
-298 -39 500 0
-499 497 0
-500 497 0
499 500 -497 0
40 299 -502 0
-40 299 502 0
40 -299 502 0
-40 -299 -502 0
502 497 -210 0
-502 497 210 0
502 -497 210 0
-502 -497 -210 0
497 -503 0
502 -503 0
-497 -502 503 0
299 -504 0
40 -504 0
-299 -40 504 0
-503 501 0
-504 501 0
503 504 -501 0
41 300 -506 0
-41 300 506 0
41 -300 506 0
-41 -300 -506 0
506 501 -211 0
-506 501 211 0
506 -501 211 0
-506 -501 -211 0
501 -507 0
506 -507 0
-501 -506 507 0
300 -508 0
41 -508 0
-300 -41 508 0
-507 505 0
-508 505 0
507 508 -505 0
42 301 -510 0
-42 301 510 0
42 -301 510 0
-42 -301 -510 0
510 505 -212 0
-510 505 212 0
510 -505 212 0
-510 -505 -212 0
505 -511 0
510 -511 0
-505 -510 511 0
301 -512 0
42 -512 0
-301 -42 512 0
-511 509 0
-512 509 0
511 512 -509 0
43 302 -514 0
-43 302 514 0
43 -302 514 0
-43 -302 -514 0
514 509 -213 0
-514 509 213 0
514 -509 213 0
-514 -509 -213 0
509 -515 0
514 -515 0
-509 -514 515 0
302 -516 0
43 -516 0
-302 -43 516 0
-515 513 0
-516 513 0
515 516 -513 0
44 303 -518 0
-44 303 518 0
44 -303 518 0
-44 -303 -518 0
518 513 -214 0
-518 513 214 0
518 -513 214 0
-518 -513 -214 0
513 -519 0
518 -519 0
-513 -518 519 0
303 -520 0
44 -520 0
-303 -44 520 0
-519 517 0
-520 517 0
519 520 -517 0
45 304 -522 0
-45 304 522 0
45 -304 522 0
-45 -304 -522 0
522 517 -215 0
-522 517 215 0
522 -517 215 0
-522 -517 -215 0
517 -523 0
522 -523 0
-517 -522 523 0
304 -524 0
45 -524 0
-304 -45 524 0
-523 521 0
-524 521 0
523 524 -521 0
46 305 -526 0
-46 305 526 0
46 -305 526 0
-46 -305 -526 0
526 521 -216 0
-526 521 216 0
526 -521 216 0
-526 -521 -216 0
521 -527 0
526 -527 0
-521 -526 527 0
305 -528 0
46 -528 0
-305 -46 528 0
-527 525 0
-528 525 0
527 528 -525 0
47 306 -530 0
-47 306 530 0
47 -306 530 0
-47 -306 -530 0
530 525 -217 0
-530 525 217 0
530 -525 217 0
-530 -525 -217 0
525 -531 0
530 -531 0
-525 -530 531 0
306 -532 0
47 -532 0
-306 -47 532 0
-531 529 0
-532 529 0
531 532 -529 0
48 307 -534 0
-48 307 534 0
48 -307 534 0
-48 -307 -534 0
534 529 -218 0
-534 529 218 0
534 -529 218 0
-534 -529 -218 0
529 -535 0
534 -535 0
-529 -534 535 0
307 -536 0
48 -536 0
-307 -48 536 0
-535 533 0
-536 533 0
535 536 -533 0
49 308 -538 0
-49 308 538 0
49 -308 538 0
-49 -308 -538 0
538 533 -219 0
-538 533 219 0
538 -533 219 0
-538 -533 -219 0
533 -539 0
538 -539 0
-533 -538 539 0
308 -540 0
49 -540 0
-308 -49 540 0
-539 537 0
-540 537 0
539 540 -537 0
50 309 -542 0
-50 309 542 0
50 -309 542 0
-50 -309 -542 0
542 537 -220 0
-542 537 220 0
542 -537 220 0
-542 -537 -220 0
537 -543 0
542 -543 0
-537 -542 543 0
309 -544 0
50 -544 0
-309 -50 544 0
-543 541 0
-544 541 0
543 544 -541 0
51 310 -546 0
-51 310 546 0
51 -310 546 0
-51 -310 -546 0
546 541 -221 0
-546 541 221 0
546 -541 221 0
-546 -541 -221 0
541 -547 0
546 -547 0
-541 -546 547 0
310 -548 0
51 -548 0
-310 -51 548 0
-547 545 0
-548 545 0
547 548 -545 0
52 311 -550 0
-52 311 550 0
52 -311 550 0
-52 -311 -550 0
550 545 -222 0
-550 545 222 0
550 -545 222 0
-550 -545 -222 0
545 -551 0
550 -551 0
-545 -550 551 0
311 -552 0
52 -552 0
-311 -52 552 0
-551 549 0
-552 549 0
551 552 -549 0
53 312 -554 0
-53 312 554 0
53 -312 554 0
-53 -312 -554 0
554 549 -223 0
-554 549 223 0
554 -549 223 0
-554 -549 -223 0
549 -555 0
554 -555 0
-549 -554 555 0
312 -556 0
53 -556 0
-312 -53 556 0
-555 553 0
-556 553 0
555 556 -553 0
54 313 -558 0
-54 313 558 0
54 -313 558 0
-54 -313 -558 0
558 553 -224 0
-558 553 224 0
558 -553 224 0
-558 -553 -224 0
553 -559 0
558 -559 0
-553 -558 559 0
313 -560 0
54 -560 0
-313 -54 560 0
-559 557 0
-560 557 0
559 560 -557 0
55 314 -562 0
-55 314 562 0
55 -314 562 0
-55 -314 -562 0
562 557 -225 0
-562 557 225 0
562 -557 225 0
-562 -557 -225 0
557 -563 0
562 -563 0
-557 -562 563 0
314 -564 0
55 -564 0
-314 -55 564 0
-563 561 0
-564 561 0
563 564 -561 0
56 315 -566 0
-56 315 566 0
56 -315 566 0
-56 -315 -566 0
566 561 -226 0
-566 561 226 0
566 -561 226 0
-566 -561 -226 0
561 -567 0
566 -567 0
-561 -566 567 0
315 -568 0
56 -568 0
-315 -56 568 0
-567 565 0
-568 565 0
567 568 -565 0
57 316 -570 0
-57 316 570 0
57 -316 570 0
-57 -316 -570 0
570 565 -227 0
-570 565 227 0
570 -565 227 0
-570 -565 -227 0
565 -571 0
570 -571 0
-565 -570 571 0
316 -572 0
57 -572 0
-316 -57 572 0
-571 569 0
-572 569 0
571 572 -569 0
58 317 -574 0
-58 317 574 0
58 -317 574 0
-58 -317 -574 0
574 569 -228 0
-574 569 228 0
574 -569 228 0
-574 -569 -228 0
569 -575 0
574 -575 0
-569 -574 575 0
317 -576 0
58 -576 0
-317 -58 576 0
-575 573 0
-576 573 0
575 576 -573 0
59 318 -578 0
-59 318 578 0
59 -318 578 0
-59 -318 -578 0
578 573 -229 0
-578 573 229 0
578 -573 229 0
-578 -573 -229 0
573 -579 0
578 -579 0
-573 -578 579 0
318 -580 0
59 -580 0
-318 -59 580 0
-579 577 0
-580 577 0
579 580 -577 0
60 319 -582 0
-60 319 582 0
60 -319 582 0
-60 -319 -582 0
582 577 -230 0
-582 577 230 0
582 -577 230 0
-582 -577 -230 0
577 -583 0
582 -583 0
-577 -582 583 0
319 -584 0
60 -584 0
-319 -60 584 0
-583 581 0
-584 581 0
583 584 -581 0
61 320 -586 0
-61 320 586 0
61 -320 586 0
-61 -320 -586 0
586 581 -231 0
-586 581 231 0
586 -581 231 0
-586 -581 -231 0
581 -587 0
586 -587 0
-581 -586 587 0
320 -588 0
61 -588 0
-320 -61 588 0
-587 585 0
-588 585 0
587 588 -585 0
62 321 -590 0
-62 321 590 0
62 -321 590 0
-62 -321 -590 0
590 585 -232 0
-590 585 232 0
590 -585 232 0
-590 -585 -232 0
585 -591 0
590 -591 0
-585 -590 591 0
321 -592 0
62 -592 0
-321 -62 592 0
-591 589 0
-592 589 0
591 592 -589 0
63 322 -594 0
-63 322 594 0
63 -322 594 0
-63 -322 -594 0
594 589 -233 0
-594 589 233 0
594 -589 233 0
-594 -589 -233 0
589 -595 0
594 -595 0
-589 -594 595 0
322 -596 0
63 -596 0
-322 -63 596 0
-595 593 0
-596 593 0
595 596 -593 0
64 323 -598 0
-64 323 598 0
64 -323 598 0
-64 -323 -598 0
598 593 -234 0
-598 593 234 0
598 -593 234 0
-598 -593 -234 0
593 -599 0
598 -599 0
-593 -598 599 0
323 -600 0
64 -600 0
-323 -64 600 0
-599 597 0
-600 597 0
599 600 -597 0
65 324 -602 0
-65 324 602 0
65 -324 602 0
-65 -324 -602 0
602 597 -235 0
-602 597 235 0
602 -597 235 0
-602 -597 -235 0
597 -603 0
602 -603 0
-597 -602 603 0
324 -604 0
65 -604 0
-324 -65 604 0
-603 601 0
-604 601 0
603 604 -601 0
66 325 -606 0
-66 325 606 0
66 -325 606 0
-66 -325 -606 0
606 601 -236 0
-606 601 236 0
606 -601 236 0
-606 -601 -236 0
601 -607 0
606 -607 0
-601 -606 607 0
325 -608 0
66 -608 0
-325 -66 608 0
-607 605 0
-608 605 0
607 608 -605 0
67 326 -610 0
-67 326 610 0
67 -326 610 0
-67 -326 -610 0
610 605 -237 0
-610 605 237 0
610 -605 237 0
-610 -605 -237 0
605 -611 0
610 -611 0
-605 -610 611 0
326 -612 0
67 -612 0
-326 -67 612 0
-611 609 0
-612 609 0
611 612 -609 0
68 327 -614 0
-68 327 614 0
68 -327 614 0
-68 -327 -614 0
614 609 -238 0
-614 609 238 0
614 -609 238 0
-614 -609 -238 0
609 -615 0
614 -615 0
-609 -614 615 0
327 -616 0
68 -616 0
-327 -68 616 0
-615 613 0
-616 613 0
615 616 -613 0
69 328 -618 0
-69 328 618 0
69 -328 618 0
-69 -328 -618 0
618 613 -239 0
-618 613 239 0
618 -613 239 0
-618 -613 -239 0
613 -619 0
618 -619 0
-613 -618 619 0
328 -620 0
69 -620 0
-328 -69 620 0
-619 617 0
-620 617 0
619 620 -617 0
70 329 -622 0
-70 329 622 0
70 -329 622 0
-70 -329 -622 0
622 617 -240 0
-622 617 240 0
622 -617 240 0
-622 -617 -240 0
617 -623 0
622 -623 0
-617 -622 623 0
329 -624 0
70 -624 0
-329 -70 624 0
-623 621 0
-624 621 0
623 624 -621 0
71 330 -626 0
-71 330 626 0
71 -330 626 0
-71 -330 -626 0
626 621 -241 0
-626 621 241 0
626 -621 241 0
-626 -621 -241 0
621 -627 0
626 -627 0
-621 -626 627 0
330 -628 0
71 -628 0
-330 -71 628 0
-627 625 0
-628 625 0
627 628 -625 0
72 331 -630 0
-72 331 630 0
72 -331 630 0
-72 -331 -630 0
630 625 -242 0
-630 625 242 0
630 -625 242 0
-630 -625 -242 0
625 -631 0
630 -631 0
-625 -630 631 0
331 -632 0
72 -632 0
-331 -72 632 0
-631 629 0
-632 629 0
631 632 -629 0
73 332 -634 0
-73 332 634 0
73 -332 634 0
-73 -332 -634 0
634 629 -243 0
-634 629 243 0
634 -629 243 0
-634 -629 -243 0
629 -635 0
634 -635 0
-629 -634 635 0
332 -636 0
73 -636 0
-332 -73 636 0
-635 633 0
-636 633 0
635 636 -633 0
74 333 -638 0
-74 333 638 0
74 -333 638 0
-74 -333 -638 0
638 633 -244 0
-638 633 244 0
638 -633 244 0
-638 -633 -244 0
633 -639 0
638 -639 0
-633 -638 639 0
333 -640 0
74 -640 0
-333 -74 640 0
-639 637 0
-640 637 0
639 640 -637 0
75 334 -642 0
-75 334 642 0
75 -334 642 0
-75 -334 -642 0
642 637 -245 0
-642 637 245 0
642 -637 245 0
-642 -637 -245 0
637 -643 0
642 -643 0
-637 -642 643 0
334 -644 0
75 -644 0
-334 -75 644 0
-643 641 0
-644 641 0
643 644 -641 0
76 335 -646 0
-76 335 646 0
76 -335 646 0
-76 -335 -646 0
646 641 -246 0
-646 641 246 0
646 -641 246 0
-646 -641 -246 0
641 -647 0
646 -647 0
-641 -646 647 0
335 -648 0
76 -648 0
-335 -76 648 0
-647 645 0
-648 645 0
647 648 -645 0
77 336 -650 0
-77 336 650 0
77 -336 650 0
-77 -336 -650 0
650 645 -247 0
-650 645 247 0
650 -645 247 0
-650 -645 -247 0
645 -651 0
650 -651 0
-645 -650 651 0
336 -652 0
77 -652 0
-336 -77 652 0
-651 649 0
-652 649 0
651 652 -649 0
78 337 -654 0
-78 337 654 0
78 -337 654 0
-78 -337 -654 0
654 649 -248 0
-654 649 248 0
654 -649 248 0
-654 -649 -248 0
649 -655 0
654 -655 0
-649 -654 655 0
337 -656 0
78 -656 0
-337 -78 656 0
-655 653 0
-656 653 0
655 656 -653 0
79 338 -658 0
-79 338 658 0
79 -338 658 0
-79 -338 -658 0
658 653 -249 0
-658 653 249 0
658 -653 249 0
-658 -653 -249 0
653 -659 0
658 -659 0
-653 -658 659 0
338 -660 0
79 -660 0
-338 -79 660 0
-659 657 0
-660 657 0
659 660 -657 0
80 339 -662 0
-80 339 662 0
80 -339 662 0
-80 -339 -662 0
662 657 -250 0
-662 657 250 0
662 -657 250 0
-662 -657 -250 0
657 -663 0
662 -663 0
-657 -662 663 0
339 -664 0
80 -664 0
-339 -80 664 0
-663 661 0
-664 661 0
663 664 -661 0
81 340 -666 0
-81 340 666 0
81 -340 666 0
-81 -340 -666 0
666 661 -251 0
-666 661 251 0
666 -661 251 0
-666 -661 -251 0
661 -667 0
666 -667 0
-661 -666 667 0
340 -668 0
81 -668 0
-340 -81 668 0
-667 665 0
-668 665 0
667 668 -665 0
82 341 -670 0
-82 341 670 0
82 -341 670 0
-82 -341 -670 0
670 665 -252 0
-670 665 252 0
670 -665 252 0
-670 -665 -252 0
665 -671 0
670 -671 0
-665 -670 671 0
341 -672 0
82 -672 0
-341 -82 672 0
-671 669 0
-672 669 0
671 672 -669 0
83 342 -674 0
-83 342 674 0
83 -342 674 0
-83 -342 -674 0
674 669 -253 0
-674 669 253 0
674 -669 253 0
-674 -669 -253 0
669 -675 0
674 -675 0
-669 -674 675 0
342 -676 0
83 -676 0
-342 -83 676 0
-675 673 0
-676 673 0
675 676 -673 0
84 343 -678 0
-84 343 678 0
84 -343 678 0
-84 -343 -678 0
678 673 -254 0
-678 673 254 0
678 -673 254 0
-678 -673 -254 0
673 -679 0
678 -679 0
-673 -678 679 0
343 -680 0
84 -680 0
-343 -84 680 0
-679 677 0
-680 677 0
679 680 -677 0
85 344 -682 0
-85 344 682 0
85 -344 682 0
-85 -344 -682 0
682 677 -255 0
-682 677 255 0
682 -677 255 0
-682 -677 -255 0
677 -683 0
682 -683 0
-677 -682 683 0
344 -684 0
85 -684 0
-344 -85 684 0
-683 681 0
-684 681 0
683 684 -681 0
681 257 -256 0
-681 257 256 0
681 -257 256 0
-681 -257 -256 0
